NAME : pairopt.-195741.tour
COMMENT : Length = -195741
COMMENT : Found by LKH-3 [Keld Helsgaun] Tue Mar  4 23:54:43 2025
TYPE : TOUR
DIMENSION : 22
TOUR_SECTION
1
2
6
9
10
11
13
8
16
18
22
3
14
12
20
4
17
15
7
5
21
19
-1
EOF
